(set-info :smt-lib-version 2.6)
(set-logic QF_NIA)
(set-info :source |
Generated by: Cristina Borralleras, Daniel Larraz, Albert Oliveras, Enric Rodriguez-Carbonell, Albert Rubio
Generated on: 2017-04-27
Generator: VeryMax
Application: Termination proving
Target solver: barcelogic
|)
(set-info :license "https://creativecommons.org/licenses/by/4.0/")
(set-info :category "industrial")
(set-info :status sat)
(declare-fun Nl2main_x1 () Int)
(declare-fun Nl2main_y1 () Int)
(declare-fun Nl2main_tmp1 () Int)
(declare-fun Nl2main_xtmp1 () Int)
(declare-fun Nl2main_x2 () Int)
(declare-fun Nl2main_y2 () Int)
(declare-fun Nl2main_tmp2 () Int)
(declare-fun Nl2main_xtmp2 () Int)
(declare-fun lam0n0 () Int)
(declare-fun lam0n1 () Int)
(declare-fun lam0n2 () Int)
(declare-fun lam0n3 () Int)
(declare-fun lam0n4 () Int)
(declare-fun Nl2CT1 () Int)
(declare-fun Nl2CT2 () Int)
(declare-fun lam1n0 () Int)
(declare-fun lam1n1 () Int)
(declare-fun lam1n2 () Int)
(declare-fun lam1n3 () Int)
(declare-fun lam1n4 () Int)
(declare-fun lam2n0 () Int)
(declare-fun lam2n1 () Int)
(declare-fun lam2n2 () Int)
(declare-fun lam2n3 () Int)
(declare-fun lam2n4 () Int)
(declare-fun lam3n0 () Int)
(declare-fun lam3n1 () Int)
(declare-fun lam3n2 () Int)
(declare-fun lam3n3 () Int)
(declare-fun lam3n4 () Int)
(declare-fun lam4n0 () Int)
(declare-fun lam4n1 () Int)
(declare-fun lam4n2 () Int)
(declare-fun lam4n3 () Int)
(declare-fun lam4n4 () Int)
(declare-fun lam5n0 () Int)
(declare-fun lam5n1 () Int)
(declare-fun lam5n2 () Int)
(declare-fun lam5n3 () Int)
(declare-fun lam5n4 () Int)
(declare-fun lam6n0 () Int)
(declare-fun lam6n1 () Int)
(declare-fun lam6n2 () Int)
(declare-fun lam6n3 () Int)
(declare-fun lam6n4 () Int)
(declare-fun lam7n0 () Int)
(declare-fun lam7n1 () Int)
(declare-fun lam7n2 () Int)
(declare-fun lam7n3 () Int)
(declare-fun lam7n4 () Int)
(declare-fun lam8n0 () Int)
(declare-fun lam8n1 () Int)
(declare-fun lam8n2 () Int)
(declare-fun lam8n3 () Int)
(declare-fun lam8n4 () Int)
(declare-fun lam9n0 () Int)
(declare-fun lam9n1 () Int)
(declare-fun lam10n0 () Int)
(declare-fun lam10n1 () Int)
(declare-fun main_x () Int)
(declare-fun undef3 () Int)
(declare-fun main_y () Int)
(declare-fun undef4 () Int)
(declare-fun main_tmp () Int)
(declare-fun main_xtmp () Int)
(declare-fun FV_main_x_3 () Int)
(declare-fun FV_main_y_3 () Int)
(declare-fun FV_main_tmp_3 () Int)
(declare-fun FV_main_xtmp_3 () Int)
(declare-fun lam11n0 () Int)
(declare-fun lam11n1 () Int)
(declare-fun lam11n2 () Int)
(declare-fun lam11n4 () Int)
(declare-fun lam11n5 () Int)
(declare-fun lam11n3 () Int)
(declare-fun FV_main_x_4 () Int)
(declare-fun FV_main_y_4 () Int)
(declare-fun FV_main_tmp_4 () Int)
(declare-fun FV_main_xtmp_4 () Int)
(assert ( and ( <= ( - 1 ) Nl2main_x1 ) ( <= Nl2main_x1 1 ) ( <= ( - 1 ) Nl2main_y1 ) ( <= Nl2main_y1 1 ) ( <= ( - 1 ) Nl2main_tmp1 ) ( <= Nl2main_tmp1 1 ) ( <= ( - 1 ) Nl2main_xtmp1 ) ( <= Nl2main_xtmp1 1 ) ( <= ( - 1 ) Nl2main_x2 ) ( <= Nl2main_x2 1 ) ( <= ( - 1 ) Nl2main_y2 ) ( <= Nl2main_y2 1 ) ( <= ( - 1 ) Nl2main_tmp2 ) ( <= Nl2main_tmp2 1 ) ( <= ( - 1 ) Nl2main_xtmp2 ) ( <= Nl2main_xtmp2 1 ) ))
(assert ( or ( and ( >= lam0n0 0 ) ( >= lam0n1 0 ) ( >= lam0n2 0 ) ( >= lam0n3 0 ) ( >= lam0n4 0 ) ( > ( + ( * 1 lam0n1 ) ( * 1 lam0n2 ) ( * Nl2CT1 lam0n3 ) ( * Nl2CT2 lam0n4 ) ( - 1 ) ) 0 ) ( = ( + ( * 1 lam0n0 ) ( * 1 lam0n1 ) ( * Nl2main_x1 lam0n3 ) ( * Nl2main_x2 lam0n4 ) ) 0 ) ( = ( + ( * 1 lam0n1 ) ( * 1 lam0n2 ) ( * Nl2main_y1 lam0n3 ) ( * Nl2main_y2 lam0n4 ) ) 0 ) ( = ( + ( * Nl2main_tmp1 lam0n3 ) ( * Nl2main_tmp2 lam0n4 ) ) 0 ) ( = ( + ( * Nl2main_xtmp1 lam0n3 ) ( * Nl2main_xtmp2 lam0n4 ) ) 0 ) ) ( and ( >= lam1n0 0 ) ( >= lam1n1 0 ) ( >= lam1n2 0 ) ( >= lam1n3 0 ) ( >= lam1n4 0 ) ( > ( + ( * 1 lam1n1 ) ( * 1 lam1n2 ) ( * Nl2CT1 lam1n3 ) ( * Nl2CT2 lam1n4 ) ( - 1 ( + ( + ( + ( + Nl2CT1 ( * Nl2main_x1 0 ) ) ( * Nl2main_y1 0 ) ) ( * Nl2main_tmp1 0 ) ) ( * Nl2main_xtmp1 0 ) ) ) ) 0 ) ( = ( + ( * 1 lam1n0 ) ( * 1 lam1n1 ) ( * Nl2main_x1 lam1n3 ) ( * Nl2main_x2 lam1n4 ) ( - ( + ( + 0 ( * Nl2main_y1 1 ) ) ( * Nl2main_xtmp1 1 ) ) ) ) 0 ) ( = ( + ( * 1 lam1n1 ) ( * 1 lam1n2 ) ( * Nl2main_y1 lam1n3 ) ( * Nl2main_y2 lam1n4 ) ( - ( + ( + 0 ( * Nl2main_x1 1 ) ) ( * Nl2main_tmp1 1 ) ) ) ) 0 ) ( = ( + ( * Nl2main_tmp1 lam1n3 ) ( * Nl2main_tmp2 lam1n4 ) ) 0 ) ( = ( + ( * Nl2main_xtmp1 lam1n3 ) ( * Nl2main_xtmp2 lam1n4 ) ) 0 ) ) ))
(assert ( or ( and ( >= lam0n0 0 ) ( >= lam0n1 0 ) ( >= lam0n2 0 ) ( >= lam0n3 0 ) ( >= lam0n4 0 ) ( > ( + ( * 1 lam0n1 ) ( * 1 lam0n2 ) ( * Nl2CT1 lam0n3 ) ( * Nl2CT2 lam0n4 ) ( - 1 ) ) 0 ) ( = ( + ( * 1 lam0n0 ) ( * 1 lam0n1 ) ( * Nl2main_x1 lam0n3 ) ( * Nl2main_x2 lam0n4 ) ) 0 ) ( = ( + ( * 1 lam0n1 ) ( * 1 lam0n2 ) ( * Nl2main_y1 lam0n3 ) ( * Nl2main_y2 lam0n4 ) ) 0 ) ( = ( + ( * Nl2main_tmp1 lam0n3 ) ( * Nl2main_tmp2 lam0n4 ) ) 0 ) ( = ( + ( * Nl2main_xtmp1 lam0n3 ) ( * Nl2main_xtmp2 lam0n4 ) ) 0 ) ) ( and ( >= lam2n0 0 ) ( >= lam2n1 0 ) ( >= lam2n2 0 ) ( >= lam2n3 0 ) ( >= lam2n4 0 ) ( > ( + ( * 1 lam2n1 ) ( * 1 lam2n2 ) ( * Nl2CT1 lam2n3 ) ( * Nl2CT2 lam2n4 ) ( - 1 ( + ( + ( + ( + Nl2CT2 ( * Nl2main_x2 0 ) ) ( * Nl2main_y2 0 ) ) ( * Nl2main_tmp2 0 ) ) ( * Nl2main_xtmp2 0 ) ) ) ) 0 ) ( = ( + ( * 1 lam2n0 ) ( * 1 lam2n1 ) ( * Nl2main_x1 lam2n3 ) ( * Nl2main_x2 lam2n4 ) ( - ( + ( + 0 ( * Nl2main_y2 1 ) ) ( * Nl2main_xtmp2 1 ) ) ) ) 0 ) ( = ( + ( * 1 lam2n1 ) ( * 1 lam2n2 ) ( * Nl2main_y1 lam2n3 ) ( * Nl2main_y2 lam2n4 ) ( - ( + ( + 0 ( * Nl2main_x2 1 ) ) ( * Nl2main_tmp2 1 ) ) ) ) 0 ) ( = ( + ( * Nl2main_tmp1 lam2n3 ) ( * Nl2main_tmp2 lam2n4 ) ) 0 ) ( = ( + ( * Nl2main_xtmp1 lam2n3 ) ( * Nl2main_xtmp2 lam2n4 ) ) 0 ) ) ))
(assert ( or ( and ( >= lam3n0 0 ) ( >= lam3n1 0 ) ( >= lam3n2 0 ) ( >= lam3n3 0 ) ( >= lam3n4 0 ) ( > ( + ( * 1 lam3n0 ) ( * 1 lam3n1 ) ( * 1 lam3n2 ) ( * Nl2CT1 lam3n3 ) ( * Nl2CT2 lam3n4 ) ( - 1 ) ) 0 ) ( = ( + ( * 1 lam3n0 ) ( * ( - 1 ) lam3n1 ) ( * Nl2main_x1 lam3n3 ) ( * Nl2main_x2 lam3n4 ) ) 0 ) ( = ( + ( * 1 lam3n0 ) ( * 1 lam3n2 ) ( * Nl2main_y1 lam3n3 ) ( * Nl2main_y2 lam3n4 ) ) 0 ) ( = ( + ( * Nl2main_tmp1 lam3n3 ) ( * Nl2main_tmp2 lam3n4 ) ) 0 ) ( = ( + ( * Nl2main_xtmp1 lam3n3 ) ( * Nl2main_xtmp2 lam3n4 ) ) 0 ) ) ( and ( >= lam4n0 0 ) ( >= lam4n1 0 ) ( >= lam4n2 0 ) ( >= lam4n3 0 ) ( >= lam4n4 0 ) ( > ( + ( * 1 lam4n0 ) ( * 1 lam4n1 ) ( * 1 lam4n2 ) ( * Nl2CT1 lam4n3 ) ( * Nl2CT2 lam4n4 ) ( - 1 ( + ( + ( + ( + Nl2CT1 ( * Nl2main_x1 0 ) ) ( * Nl2main_y1 0 ) ) ( * Nl2main_tmp1 0 ) ) ( * Nl2main_xtmp1 0 ) ) ) ) 0 ) ( = ( + ( * 1 lam4n0 ) ( * ( - 1 ) lam4n1 ) ( * Nl2main_x1 lam4n3 ) ( * Nl2main_x2 lam4n4 ) ( - ( + ( + 0 ( * Nl2main_y1 1 ) ) ( * Nl2main_xtmp1 1 ) ) ) ) 0 ) ( = ( + ( * 1 lam4n0 ) ( * 1 lam4n2 ) ( * Nl2main_y1 lam4n3 ) ( * Nl2main_y2 lam4n4 ) ( - ( + ( + 0 ( * Nl2main_x1 1 ) ) ( * Nl2main_tmp1 1 ) ) ) ) 0 ) ( = ( + ( * Nl2main_tmp1 lam4n3 ) ( * Nl2main_tmp2 lam4n4 ) ) 0 ) ( = ( + ( * Nl2main_xtmp1 lam4n3 ) ( * Nl2main_xtmp2 lam4n4 ) ) 0 ) ) ))
(assert ( or ( and ( >= lam3n0 0 ) ( >= lam3n1 0 ) ( >= lam3n2 0 ) ( >= lam3n3 0 ) ( >= lam3n4 0 ) ( > ( + ( * 1 lam3n0 ) ( * 1 lam3n1 ) ( * 1 lam3n2 ) ( * Nl2CT1 lam3n3 ) ( * Nl2CT2 lam3n4 ) ( - 1 ) ) 0 ) ( = ( + ( * 1 lam3n0 ) ( * ( - 1 ) lam3n1 ) ( * Nl2main_x1 lam3n3 ) ( * Nl2main_x2 lam3n4 ) ) 0 ) ( = ( + ( * 1 lam3n0 ) ( * 1 lam3n2 ) ( * Nl2main_y1 lam3n3 ) ( * Nl2main_y2 lam3n4 ) ) 0 ) ( = ( + ( * Nl2main_tmp1 lam3n3 ) ( * Nl2main_tmp2 lam3n4 ) ) 0 ) ( = ( + ( * Nl2main_xtmp1 lam3n3 ) ( * Nl2main_xtmp2 lam3n4 ) ) 0 ) ) ( and ( >= lam5n0 0 ) ( >= lam5n1 0 ) ( >= lam5n2 0 ) ( >= lam5n3 0 ) ( >= lam5n4 0 ) ( > ( + ( * 1 lam5n0 ) ( * 1 lam5n1 ) ( * 1 lam5n2 ) ( * Nl2CT1 lam5n3 ) ( * Nl2CT2 lam5n4 ) ( - 1 ( + ( + ( + ( + Nl2CT2 ( * Nl2main_x2 0 ) ) ( * Nl2main_y2 0 ) ) ( * Nl2main_tmp2 0 ) ) ( * Nl2main_xtmp2 0 ) ) ) ) 0 ) ( = ( + ( * 1 lam5n0 ) ( * ( - 1 ) lam5n1 ) ( * Nl2main_x1 lam5n3 ) ( * Nl2main_x2 lam5n4 ) ( - ( + ( + 0 ( * Nl2main_y2 1 ) ) ( * Nl2main_xtmp2 1 ) ) ) ) 0 ) ( = ( + ( * 1 lam5n0 ) ( * 1 lam5n2 ) ( * Nl2main_y1 lam5n3 ) ( * Nl2main_y2 lam5n4 ) ( - ( + ( + 0 ( * Nl2main_x2 1 ) ) ( * Nl2main_tmp2 1 ) ) ) ) 0 ) ( = ( + ( * Nl2main_tmp1 lam5n3 ) ( * Nl2main_tmp2 lam5n4 ) ) 0 ) ( = ( + ( * Nl2main_xtmp1 lam5n3 ) ( * Nl2main_xtmp2 lam5n4 ) ) 0 ) ) ))
(assert ( or ( and ( >= lam6n0 0 ) ( >= lam6n1 0 ) ( >= lam6n2 0 ) ( >= lam6n3 0 ) ( >= lam6n4 0 ) ( > ( + ( * 1 lam6n1 ) ( * 1 lam6n2 ) ( * Nl2CT1 lam6n3 ) ( * Nl2CT2 lam6n4 ) ( - 1 ) ) 0 ) ( = ( + ( * 1 lam6n0 ) ( * 1 lam6n1 ) ( * Nl2main_x1 lam6n3 ) ( * Nl2main_x2 lam6n4 ) ) 0 ) ( = ( + ( * 1 lam6n1 ) ( * ( - 1 ) lam6n2 ) ( * Nl2main_y1 lam6n3 ) ( * Nl2main_y2 lam6n4 ) ) 0 ) ( = ( + ( * Nl2main_tmp1 lam6n3 ) ( * Nl2main_tmp2 lam6n4 ) ) 0 ) ( = ( + ( * Nl2main_xtmp1 lam6n3 ) ( * Nl2main_xtmp2 lam6n4 ) ) 0 ) ) ( and ( >= lam7n0 0 ) ( >= lam7n1 0 ) ( >= lam7n2 0 ) ( >= lam7n3 0 ) ( >= lam7n4 0 ) ( > ( + ( * 1 lam7n1 ) ( * 1 lam7n2 ) ( * Nl2CT1 lam7n3 ) ( * Nl2CT2 lam7n4 ) ( - 1 ( + ( + ( + ( + Nl2CT1 ( * Nl2main_x1 0 ) ) ( * Nl2main_y1 0 ) ) ( * Nl2main_tmp1 0 ) ) ( * Nl2main_xtmp1 0 ) ) ) ) 0 ) ( = ( + ( * 1 lam7n0 ) ( * 1 lam7n1 ) ( * Nl2main_x1 lam7n3 ) ( * Nl2main_x2 lam7n4 ) ( - ( + ( + 0 ( * Nl2main_y1 1 ) ) ( * Nl2main_xtmp1 1 ) ) ) ) 0 ) ( = ( + ( * 1 lam7n1 ) ( * ( - 1 ) lam7n2 ) ( * Nl2main_y1 lam7n3 ) ( * Nl2main_y2 lam7n4 ) ( - ( + ( + 0 ( * Nl2main_x1 1 ) ) ( * Nl2main_tmp1 1 ) ) ) ) 0 ) ( = ( + ( * Nl2main_tmp1 lam7n3 ) ( * Nl2main_tmp2 lam7n4 ) ) 0 ) ( = ( + ( * Nl2main_xtmp1 lam7n3 ) ( * Nl2main_xtmp2 lam7n4 ) ) 0 ) ) ))
(assert ( or ( and ( >= lam6n0 0 ) ( >= lam6n1 0 ) ( >= lam6n2 0 ) ( >= lam6n3 0 ) ( >= lam6n4 0 ) ( > ( + ( * 1 lam6n1 ) ( * 1 lam6n2 ) ( * Nl2CT1 lam6n3 ) ( * Nl2CT2 lam6n4 ) ( - 1 ) ) 0 ) ( = ( + ( * 1 lam6n0 ) ( * 1 lam6n1 ) ( * Nl2main_x1 lam6n3 ) ( * Nl2main_x2 lam6n4 ) ) 0 ) ( = ( + ( * 1 lam6n1 ) ( * ( - 1 ) lam6n2 ) ( * Nl2main_y1 lam6n3 ) ( * Nl2main_y2 lam6n4 ) ) 0 ) ( = ( + ( * Nl2main_tmp1 lam6n3 ) ( * Nl2main_tmp2 lam6n4 ) ) 0 ) ( = ( + ( * Nl2main_xtmp1 lam6n3 ) ( * Nl2main_xtmp2 lam6n4 ) ) 0 ) ) ( and ( >= lam8n0 0 ) ( >= lam8n1 0 ) ( >= lam8n2 0 ) ( >= lam8n3 0 ) ( >= lam8n4 0 ) ( > ( + ( * 1 lam8n1 ) ( * 1 lam8n2 ) ( * Nl2CT1 lam8n3 ) ( * Nl2CT2 lam8n4 ) ( - 1 ( + ( + ( + ( + Nl2CT2 ( * Nl2main_x2 0 ) ) ( * Nl2main_y2 0 ) ) ( * Nl2main_tmp2 0 ) ) ( * Nl2main_xtmp2 0 ) ) ) ) 0 ) ( = ( + ( * 1 lam8n0 ) ( * 1 lam8n1 ) ( * Nl2main_x1 lam8n3 ) ( * Nl2main_x2 lam8n4 ) ( - ( + ( + 0 ( * Nl2main_y2 1 ) ) ( * Nl2main_xtmp2 1 ) ) ) ) 0 ) ( = ( + ( * 1 lam8n1 ) ( * ( - 1 ) lam8n2 ) ( * Nl2main_y1 lam8n3 ) ( * Nl2main_y2 lam8n4 ) ( - ( + ( + 0 ( * Nl2main_x2 1 ) ) ( * Nl2main_tmp2 1 ) ) ) ) 0 ) ( = ( + ( * Nl2main_tmp1 lam8n3 ) ( * Nl2main_tmp2 lam8n4 ) ) 0 ) ( = ( + ( * Nl2main_xtmp1 lam8n3 ) ( * Nl2main_xtmp2 lam8n4 ) ) 0 ) ) ))
(assert ( and ( <= ( + Nl2CT1 ( * Nl2main_x1 FV_main_x_3 ) ( * Nl2main_y1 FV_main_y_3 ) ( * Nl2main_tmp1 FV_main_tmp_3 ) ( * Nl2main_xtmp1 FV_main_xtmp_3 ) ) 0 ) ( <= ( + Nl2CT2 ( * Nl2main_x2 FV_main_x_3 ) ( * Nl2main_y2 FV_main_y_3 ) ( * Nl2main_tmp2 FV_main_tmp_3 ) ( * Nl2main_xtmp2 FV_main_xtmp_3 ) ) 0 ) ( <= ( + 1 FV_main_x_3 FV_main_y_3 ) 0 ) ))
(assert ( and ( >= lam11n0 0 ) ( >= lam11n1 0 ) ( >= lam11n2 0 ) ( >= lam11n4 0 ) ( >= lam11n5 0 ) ( > ( + ( * 1 lam11n1 ) ( * 1 lam11n2 ) ( * Nl2CT1 lam11n4 ) ( * Nl2CT2 lam11n5 ) ( - 1 ) ) 0 ) ( = ( + ( * 1 lam11n0 ) ( * 1 lam11n1 ) ( * 1 lam11n2 ) ( * Nl2main_x1 lam11n4 ) ( * Nl2main_x2 lam11n5 ) ) 0 ) ( = ( + ( * 1 lam11n1 ) ( * ( - 1 ) lam11n2 ) ( * 1 lam11n3 ) ( * Nl2main_y1 lam11n4 ) ( * Nl2main_y2 lam11n5 ) ) 0 ) ( = ( + ( * Nl2main_tmp1 lam11n4 ) ( * Nl2main_tmp2 lam11n5 ) ) 0 ) ( = ( + ( * Nl2main_xtmp1 lam11n4 ) ( * Nl2main_xtmp2 lam11n5 ) ) 0 ) ))
(assert ( and ( and ( <= ( + Nl2CT1 ( * Nl2main_x1 FV_main_x_4 ) ( * Nl2main_y1 FV_main_y_4 ) ( * Nl2main_tmp1 FV_main_tmp_4 ) ( * Nl2main_xtmp1 FV_main_xtmp_4 ) ) 0 ) ( <= ( + Nl2CT2 ( * Nl2main_x2 FV_main_x_4 ) ( * Nl2main_y2 FV_main_y_4 ) ( * Nl2main_tmp2 FV_main_tmp_4 ) ( * Nl2main_xtmp2 FV_main_xtmp_4 ) ) 0 ) ) ( or ( and ( <= FV_main_x_4 0 ) ( <= ( + 1 FV_main_x_4 FV_main_y_4 ) 0 ) ( <= ( + 1 FV_main_y_4 ) 0 ) ) ( and ( <= ( + 1 FV_main_x_4 FV_main_y_4 ) 0 ) ( <= ( + 1 ( * ( - 1 ) FV_main_x_4 ) ) 0 ) ( <= ( + 1 FV_main_y_4 ) 0 ) ) ( and ( <= FV_main_x_4 0 ) ( <= ( + 1 FV_main_x_4 FV_main_y_4 ) 0 ) ( <= ( + 1 ( * ( - 1 ) FV_main_y_4 ) ) 0 ) ) ) ))
(check-sat)
(exit)
